Route #1: 130 50 151 107 36 68 25 81 62 79 108 35
Route #2: 144 116 76 39 153 109 95 135 26 96
Route #3: 27 59 70 83 65 58 54 43
Route #4: 14 105 7
Route #5: 48 67 15 145 42 75
Route #6: 133 97 23 4
Route #7: 34 53 104 21 45 55 143 74 129 91
Route #8: 121 102 63 28 33 80 137 124 114 111 106
Route #9: 122 127 141 120 92 138 101 71 5 57 44 152 119 98 115 38
Route #10: 40 90 2 61 93 100 87 41 88 103
Route #11: 140 24 16
Route #12: 31 29 110 146 89
Route #13: 10 30
Route #14: 66 132 112 150 142 6 126 148
Route #15: 17
Route #16: 118 46 149 99 51 86 77 19 82 136 78 49
Route #17: 20 32
Route #18: 113 117 47 134 60 123 52 11 128 73 56 94
Route #19: 125 18 13
Route #20: 37 8 12
Route #21: 131 147 64 69 139 3 85 72
Route #22: 84 9
Route #23: 22
Cost 44892
